10 45
1 2 95
1 3 83
1 4 78
1 5 96
1 6 45
1 7 15
1 8 33
1 9 0
1 10 99
2 3 80
2 4 19
2 5 3
2 6 22
2 7 22
2 8 63
2 9 41
2 10 7
3 4 15
3 5 8
3 6 78
3 7 76
3 8 39
3 9 22
3 10 98
4 5 91
4 6 88
4 7 98
4 8 86
4 9 40
4 10 85
5 6 3
5 7 91
5 8 43
5 9 28
5 10 11
6 7 83
6 8 85
6 9 6
6 10 33
7 8 42
7 9 94
7 10 85
8 9 55
8 10 65
9 10 19
